min: 11.3 * x12 + 43.0 * x13 + 44.1 * x14 + 49.3 * x15 + 50.8 * x16 + 60.1 * x17 + 11.3 * x21 + 42.2 * x23 + 45.0 * x24 + 51.5 * x25 + 47.5 * x26 + 57.9 * x27 + 43.0 * x31 + 42.2 * x32 + 6.5 * x34 + 14.6 * x35 + 12.2 * x36 + 17.7 * x37 + 44.1 * x41 + 45.0 * x42 + 6.5 * x43 + 8.3 * x45 + 17.7 * x46 + 20.1 * x47 + 49.3 * x51 + 51.5 * x52 + 14.6 * x53 + 8.3 * x54 + 24.2 * x56 + 23.0 * x57 + 50.8 * x61 + 47.5 * x62 + 12.2 * x63 + 17.7 * x64 + 24.2 * x65 + 11.2 * x67 + 60.1 * x71 + 57.9 * x72 + 17.7 * x73 + 20.1 * x74 + 23.0 * x75 + 11.2 * x76 + Te1 + Te2 + Te3 + Te4 + Te5 + Te6 + Te7 + 7.9 + 8.5 + 6.1 + 4.0 + 2.4 + 5.2 + 2.4;

x12 + x13 + x14 + x15 + x16 + x17 = 1;
x21 + x23 + x24 + x25 + x26 + x27 = 1;
x31 + x32 + x34 + x35 + x36 + x37 = 1;
x41 + x42 + x43 + x45 + x46 + x47 = 1;
x51 + x52 + x53 + x54 + x56 + x57 = 1;
x61 + x62 + x63 + x64 + x65 + x67 = 1;
x71 + x72 + x73 + x74 + x75 + x76 = 1;
x21 + x31 + x41 + x51 + x61 + x71 = 1;
x12 + x32 + x42 + x52 + x62 + x72 = 1;
x13 + x23 + x43 + x53 + x63 + x73 = 1;
x14 + x24 + x34 + x54 + x64 + x74 = 1;
x15 + x25 + x35 + x45 + x65 + x75 = 1;
x16 + x26 + x36 + x46 + x56 + x76 = 1;
x17 + x27 + x37 + x47 + x57 + x67 = 1;
x12 + x21 <= 1;
x13 + x31 <= 1;
x14 + x41 <= 1;
x15 + x51 <= 1;
x16 + x61 <= 1;
x17 + x71 <= 1;
x23 + x32 <= 1;
x24 + x42 <= 1;
x25 + x52 <= 1;
x26 + x62 <= 1;
x27 + x72 <= 1;
x34 + x43 <= 1;
x35 + x53 <= 1;
x36 + x63 <= 1;
x37 + x73 <= 1;
x45 + x54 <= 1;
x46 + x64 <= 1;
x47 + x74 <= 1;
x56 + x65 <= 1;
x57 + x75 <= 1;
x67 + x76 <= 1;
b2 >= b1 + 11.3 + Te1 + 7.9 - 10000.0 + 10000.0 * x12;
b3 >= b1 + 43.0 + Te1 + 7.9 - 10000.0 + 10000.0 * x13;
b4 >= b1 + 44.1 + Te1 + 7.9 - 10000.0 + 10000.0 * x14;
b5 >= b1 + 49.3 + Te1 + 7.9 - 10000.0 + 10000.0 * x15;
b6 >= b1 + 50.8 + Te1 + 7.9 - 10000.0 + 10000.0 * x16;
b7 >= b1 + 60.1 + Te1 + 7.9 - 10000.0 + 10000.0 * x17;
b3 >= b2 + 42.2 + Te2 + 8.5 - 10000.0 + 10000.0 * x23;
b4 >= b2 + 45.0 + Te2 + 8.5 - 10000.0 + 10000.0 * x24;
b5 >= b2 + 51.5 + Te2 + 8.5 - 10000.0 + 10000.0 * x25;
b6 >= b2 + 47.5 + Te2 + 8.5 - 10000.0 + 10000.0 * x26;
b7 >= b2 + 57.9 + Te2 + 8.5 - 10000.0 + 10000.0 * x27;
b2 >= b3 + 42.2 + Te3 + 6.1 - 10000.0 + 10000.0 * x32;
b4 >= b3 + 6.5 + Te3 + 6.1 - 10000.0 + 10000.0 * x34;
b5 >= b3 + 14.6 + Te3 + 6.1 - 10000.0 + 10000.0 * x35;
b6 >= b3 + 12.2 + Te3 + 6.1 - 10000.0 + 10000.0 * x36;
b7 >= b3 + 17.7 + Te3 + 6.1 - 10000.0 + 10000.0 * x37;
b2 >= b4 + 45.0 + Te4 + 4.0 - 10000.0 + 10000.0 * x42;
b3 >= b4 + 6.5 + Te4 + 4.0 - 10000.0 + 10000.0 * x43;
b5 >= b4 + 8.3 + Te4 + 4.0 - 10000.0 + 10000.0 * x45;
b6 >= b4 + 17.7 + Te4 + 4.0 - 10000.0 + 10000.0 * x46;
b7 >= b4 + 20.1 + Te4 + 4.0 - 10000.0 + 10000.0 * x47;
b2 >= b5 + 51.5 + Te5 + 2.4 - 10000.0 + 10000.0 * x52;
b3 >= b5 + 14.6 + Te5 + 2.4 - 10000.0 + 10000.0 * x53;
b4 >= b5 + 8.3 + Te5 + 2.4 - 10000.0 + 10000.0 * x54;
b6 >= b5 + 24.2 + Te5 + 2.4 - 10000.0 + 10000.0 * x56;
b7 >= b5 + 23.0 + Te5 + 2.4 - 10000.0 + 10000.0 * x57;
b2 >= b6 + 47.5 + Te6 + 5.2 - 10000.0 + 10000.0 * x62;
b3 >= b6 + 12.2 + Te6 + 5.2 - 10000.0 + 10000.0 * x63;
b4 >= b6 + 17.7 + Te6 + 5.2 - 10000.0 + 10000.0 * x64;
b5 >= b6 + 24.2 + Te6 + 5.2 - 10000.0 + 10000.0 * x65;
b7 >= b6 + 11.2 + Te6 + 5.2 - 10000.0 + 10000.0 * x67;
b2 >= b7 + 57.9 + Te7 + 2.4 - 10000.0 + 10000.0 * x72;
b3 >= b7 + 17.7 + Te7 + 2.4 - 10000.0 + 10000.0 * x73;
b4 >= b7 + 20.1 + Te7 + 2.4 - 10000.0 + 10000.0 * x74;
b5 >= b7 + 23.0 + Te7 + 2.4 - 10000.0 + 10000.0 * x75;
b6 >= b7 + 11.2 + Te7 + 2.4 - 10000.0 + 10000.0 * x76;
0.0 <= b1 + Te1;
0.0 <= b2 + Te2;
120.0 <= b3 + Te3;
70.0 <= b4 + Te4;
70.0 <= b5 + Te5;
145.0 <= b6 + Te6;
110.0 <= b7 + Te7;
b1 <= 0.0;
b2 <= 40.0;
b3 <= 135.0;
b4 <= 90.0;
b5 <= 90.0;
b6 <= 150.0;
b7 <= 115.0;
Te1 >= 0.0 - b2 - 11.3 - Te2 - 8.5 - 10000.0 + 10000.0 * x21;
Te1 >= 0.0 - b3 - 43.0 - Te3 - 6.1 - 10000.0 + 10000.0 * x31;
Te1 >= 0.0 - b4 - 44.1 - Te4 - 4.0 - 10000.0 + 10000.0 * x41;
Te1 >= 0.0 - b5 - 49.3 - Te5 - 2.4 - 10000.0 + 10000.0 * x51;
Te1 >= 0.0 - b6 - 50.8 - Te6 - 5.2 - 10000.0 + 10000.0 * x61;
Te1 >= 0.0 - b7 - 60.1 - Te7 - 2.4 - 10000.0 + 10000.0 * x71;
Te2 >= 0.0 - b1 - 11.3 - Te1 - 7.9 - 10000.0 + 10000.0 * x12;
Te2 >= 0.0 - b3 - 42.2 - Te3 - 6.1 - 10000.0 + 10000.0 * x32;
Te2 >= 0.0 - b4 - 45.0 - Te4 - 4.0 - 10000.0 + 10000.0 * x42;
Te2 >= 0.0 - b5 - 51.5 - Te5 - 2.4 - 10000.0 + 10000.0 * x52;
Te2 >= 0.0 - b6 - 47.5 - Te6 - 5.2 - 10000.0 + 10000.0 * x62;
Te2 >= 0.0 - b7 - 57.9 - Te7 - 2.4 - 10000.0 + 10000.0 * x72;
Te3 >= 120.0 - b1 - 43.0 - Te1 - 7.9 - 10000.0 + 10000.0 * x13;
Te3 >= 120.0 - b2 - 42.2 - Te2 - 8.5 - 10000.0 + 10000.0 * x23;
Te3 >= 120.0 - b4 - 6.5 - Te4 - 4.0 - 10000.0 + 10000.0 * x43;
Te3 >= 120.0 - b5 - 14.6 - Te5 - 2.4 - 10000.0 + 10000.0 * x53;
Te3 >= 120.0 - b6 - 12.2 - Te6 - 5.2 - 10000.0 + 10000.0 * x63;
Te3 >= 120.0 - b7 - 17.7 - Te7 - 2.4 - 10000.0 + 10000.0 * x73;
Te4 >= 70.0 - b1 - 44.1 - Te1 - 7.9 - 10000.0 + 10000.0 * x14;
Te4 >= 70.0 - b2 - 45.0 - Te2 - 8.5 - 10000.0 + 10000.0 * x24;
Te4 >= 70.0 - b3 - 6.5 - Te3 - 6.1 - 10000.0 + 10000.0 * x34;
Te4 >= 70.0 - b5 - 8.3 - Te5 - 2.4 - 10000.0 + 10000.0 * x54;
Te4 >= 70.0 - b6 - 17.7 - Te6 - 5.2 - 10000.0 + 10000.0 * x64;
Te4 >= 70.0 - b7 - 20.1 - Te7 - 2.4 - 10000.0 + 10000.0 * x74;
Te5 >= 70.0 - b1 - 49.3 - Te1 - 7.9 - 10000.0 + 10000.0 * x15;
Te5 >= 70.0 - b2 - 51.5 - Te2 - 8.5 - 10000.0 + 10000.0 * x25;
Te5 >= 70.0 - b3 - 14.6 - Te3 - 6.1 - 10000.0 + 10000.0 * x35;
Te5 >= 70.0 - b4 - 8.3 - Te4 - 4.0 - 10000.0 + 10000.0 * x45;
Te5 >= 70.0 - b6 - 24.2 - Te6 - 5.2 - 10000.0 + 10000.0 * x65;
Te5 >= 70.0 - b7 - 23.0 - Te7 - 2.4 - 10000.0 + 10000.0 * x75;
Te6 >= 145.0 - b1 - 50.8 - Te1 - 7.9 - 10000.0 + 10000.0 * x16;
Te6 >= 145.0 - b2 - 47.5 - Te2 - 8.5 - 10000.0 + 10000.0 * x26;
Te6 >= 145.0 - b3 - 12.2 - Te3 - 6.1 - 10000.0 + 10000.0 * x36;
Te6 >= 145.0 - b4 - 17.7 - Te4 - 4.0 - 10000.0 + 10000.0 * x46;
Te6 >= 145.0 - b5 - 24.2 - Te5 - 2.4 - 10000.0 + 10000.0 * x56;
Te6 >= 145.0 - b7 - 11.2 - Te7 - 2.4 - 10000.0 + 10000.0 * x76;
Te7 >= 110.0 - b1 - 60.1 - Te1 - 7.9 - 10000.0 + 10000.0 * x17;
Te7 >= 110.0 - b2 - 57.9 - Te2 - 8.5 - 10000.0 + 10000.0 * x27;
Te7 >= 110.0 - b3 - 17.7 - Te3 - 6.1 - 10000.0 + 10000.0 * x37;
Te7 >= 110.0 - b4 - 20.1 - Te4 - 4.0 - 10000.0 + 10000.0 * x47;
Te7 >= 110.0 - b5 - 23.0 - Te5 - 2.4 - 10000.0 + 10000.0 * x57;
Te7 >= 110.0 - b6 - 11.2 - Te6 - 5.2 - 10000.0 + 10000.0 * x67;

bin x12, x13, x14, x15, x16, x17, x21, x23, x24, x25, x26, x27, x31, x32, x34, x35, x36, x37, x41, x42, x43, x45, x46, x47, x51, x52, x53, x54, x56, x57, x61, x62, x63, x64, x65, x67, x71, x72, x73, x74, x75, x76;